24 27 30 100 92 35 51 83 3 26 76 70 86 72 54 11 10 75 98 20 
62 33 50 55 36 58 97 21 
49 39 2 89 23 34 44 45 5 17 95 9 59 77 
73 71 66 65 63 38 96 80 79 85 19 8 46 
81 
82 93 28 99 
6 68 53 88 84 52 1 47 48 57 13 25 37 18 78 87 
67 22 69 31 60 43 42 32 41 90 16 
12 
74 64 4 56 94 40 7 14 15 29 61 91 
